(set-logic QF_S)
(declare-fun var0 () String)
(declare-fun var1 () String)
(declare-fun var2 () String)
(declare-fun var3 () Int)
(declare-fun var4 () Int)
(declare-fun var5 () Int)
(declare-fun var6 () Int)
(declare-fun var7 () String)
(declare-fun var8 () Bool)
(assert (str.contains var0 var1))
(assert (str.contains (str.substr var2 var3 var4) (str.replace (str.substr "e(" var5 var6) (str.at var7 var6) (str.replace var7 var0 var1))))
(assert (< (str.indexof var1 var2 var5) (str.indexof var7 "!_iI""T7m>x" var6)))
(assert (not var8))
(check-sat)